\* Problem: Unknown *\

Minimize
 obj: - 100 x_1 - 100 x_2 + 10000 x_3 + 10000 x_4 - 100 x_5 - 100 x_6
 - 100 x_7 - 100 x_8 - 100 x_9 + 100 x_12 + 100 x_13 - 100 x_15
 - 100 x_16 + 100 x_18 - 100 x_19 - 100 x_21 - 100 x_22 + 100 x_24
 + 100 x_28 - 11000 x_29 - 10800 x_30 - 10800 x_31 - 10700 x_32
 - 10700 x_33 - 10600 x_34 - 10400 x_35 - 10400 x_36 - 10400 x_37
 - 10300 x_38 - 10300 x_39 - 10200 x_40 - 10200 x_41 - 10100 x_42
 - 10100 x_43 - 10000 x_44 - 10000 x_45 - 10000 x_46 - 9900 x_47
 - 9800 x_48 - 9800 x_49 - 9700 x_50 - 9700 x_51 - 9700 x_52 - 9600 x_53
 - 9600 x_54 - 9600 x_55 - 9600 x_56 - 9500 x_57 - 9400 x_58 - 9300 x_59
 - 9200 x_60 - 9100 x_61 - 9000 x_62 - 8900 x_63 - 8800 x_64 - 8700 x_65
 - 8600 x_66 - 8600 x_67 - 8600 x_68 - 8600 x_69 - 8500 x_70 - 8500 x_71
 - 8400 x_72 - 8300 x_73 - 8200 x_74 - 8100 x_75 - 8000 x_76 - 7900 x_77
 + 2200 x_78 - 9500 x_79 - 9500 x_80 - 100 x_81 + 100 x_82 - 100 x_83

Subject To
 r_1: + x_3 + x_2 + x_1 = 36.8
 r_2: + x_83 + x_82 + x_20 + x_14 >= 0
 r_3: + x_6 + x_5 + x_4 = 36.8
 r_4: + x_81 + x_10 >= 0
 r_5: + x_57 - ~r_5 = 0
 r_6: + x_75 - ~r_6 = 0
 r_7: + x_40 - ~r_7 = 0
 r_8: + x_47 - ~r_8 = 0
 r_9: + x_70 - ~r_9 = 0
 r_10: + x_72 - ~r_10 = 0
 r_11: + x_36 - ~r_11 = 0
 r_12: + x_32 - ~r_12 = 0
 r_13: + x_33 - ~r_13 = 0
 r_14: + x_66 - ~r_14 = 0
 r_15: + x_7 + x_6 - ~r_15 = 0
 r_16: + x_8 - ~r_16 = 0
 r_17: + x_67 - ~r_17 = 0
 r_18: + x_53 - ~r_18 = 0
 r_19: + x_10 + x_9 + x_8 + x_7 >= 0
 r_20: + x_30 >= 0
 r_21: + x_12 + x_11 >= 0
 r_22: + x_11 - ~r_22 = 0
 r_23: + x_12 >= 0
 r_24: + x_16 + x_15 + x_14 + x_13 >= 0
 r_25: + x_25 >= 0
 r_26: + x_18 + x_17 >= 0
 r_27: + x_17 - ~r_27 = 0
 r_28: + x_18 >= 0
 r_29: + x_22 + x_21 + x_20 + x_19 >= 0
 r_30: + x_26 >= 0
 r_31: + x_24 + x_23 >= 0
 r_32: + x_23 - ~r_32 = 0
 r_33: + x_24 >= 0
 r_34: + x_29 = 0
 r_35: + x_38 - ~r_35 = 0
 r_36: + x_31 - ~r_36 = 0
 r_37: + x_77 - ~r_37 = 0
 r_38: + x_50 - ~r_38 = 0
 r_39: + x_54 - ~r_39 = 0
 r_40: + x_48 - ~r_40 = 0
 r_41: + x_42 - ~r_41 = 0
 r_42: + x_79 - ~r_42 = 0
 r_43: + x_26 + x_25 >= 0
 r_44: + x_35 >= 0
 r_45: + x_28 + x_27 >= 0
 r_46: + x_27 - ~r_46 = 0
 r_47: + x_28 >= 0
 r_48: + x_51 - ~r_48 = 0
 r_49: + x_64 - ~r_49 = 0
 r_50: + x_63 - ~r_50 = 0
 r_51: + x_55 - ~r_51 = 0
 r_52: + x_49 - ~r_52 = 0
 r_53: + x_34 - ~r_53 = 0
 r_54: + x_43 - ~r_54 = 0
 r_55: + x_80 + x_79 + x_78 + x_77 + x_76 + x_75 + x_74 + x_73 + x_72
 + x_71 + x_70 + x_69 + x_68 + x_67 + x_66 + x_65 + x_64 + x_63 + x_62
 + x_61 + x_60 + x_59 + x_58 + x_57 + x_56 + x_55 + x_54 + x_53 + x_52
 + x_51 + x_50 + x_49 + x_48 + x_47 + x_46 + x_45 + x_44 + x_43 + x_42
 + x_41 + x_40 + x_39 + x_38 + x_37 + x_36 + x_35 + x_34 + x_33 + x_32
 + x_31 + x_30 + x_29 = 1000
 r_56: + x_52 - ~r_56 = 0
 r_57: + x_44 - ~r_57 = 0
 r_58: + x_80 - ~r_58 = 0
 r_59: + x_61 - ~r_59 = 0
 r_60: + x_9 = 0
 r_61: + x_81 = 0
 r_62: + x_13 - ~r_62 = 0
 r_63: + x_82 - ~r_63 = 0
 r_64: + x_19 = 0
 r_65: + x_83 = 0
 r_66: + x_39 - ~r_66 = 0
 r_67: + x_58 - ~r_67 = 0
 r_68: + x_74 - ~r_68 = 0
 r_69: + x_59 - ~r_69 = 0
 r_70: + x_68 - ~r_70 = 0
 r_71: + x_37 - ~r_71 = 0
 r_72: + x_73 - ~r_72 = 0
 r_73: + x_71 - ~r_73 = 0
 r_74: + x_60 - ~r_74 = 0
 r_75: + x_41 - ~r_75 = 0
 r_76: + x_69 - ~r_76 = 0
 r_77: + x_76 - ~r_77 = 0
 r_78: + x_45 - ~r_78 = 0
 r_79: + x_65 - ~r_79 = 0
 r_80: + x_62 - ~r_80 = 0
 r_81: + x_56 - ~r_81 = 0
 r_82: + x_46 - ~r_82 = 0
 r_83: + x_15 + x_1 - ~r_83 = 0
 r_84: + x_16 - ~r_84 = 0
 r_85: + x_21 + x_2 - ~r_85 = 0
 r_86: + x_22 - ~r_86 = 0
 r_87: + x_3 - ~r_87 = 0
 r_88: + x_4 - ~r_88 = 0
 r_89: + x_80 + x_79 + x_78 + x_77 + x_76 + x_75 + x_74 + x_73 + x_72
 + x_71 + x_70 + x_69 + x_68 + x_67 + x_66 + x_65 + x_64 + x_63 + x_62
 + x_61 + x_60 + x_59 + x_58 + x_57 + x_56 + x_55 + x_54 + x_53 + x_52
 + x_51 + x_50 + x_49 + x_48 + x_47 + x_46 + x_45 + x_44 + x_43 + x_42
 + x_41 + x_40 + x_39 + x_38 + x_37 + x_36 + x_35 + x_34 + x_33 + x_32
 + x_31 + x_30 + x_29 - ~r_89 = 0
 r_90: + x_80 + x_79 + x_78 + x_77 + x_76 + x_75 + x_74 + x_73 + x_72
 + x_71 + x_70 + x_69 + x_68 + x_67 + x_66 + x_65 + x_64 + x_63 + x_62
 + x_61 + x_60 + x_59 + x_58 + x_57 + x_56 + x_55 + x_54 + x_53 + x_52
 + x_51 + x_50 + x_49 + x_48 + x_47 + x_46 + x_45 + x_44 + x_43 + x_42
 - ~r_90 = 0
 r_91: + x_80 + x_79 + x_78 + x_77 + x_76 + x_75 + x_74 + x_73 + x_72
 + x_71 + x_70 + x_69 + x_68 + x_67 + x_66 + x_65 + x_64 + x_63 + x_62
 + x_61 + x_60 + x_59 + x_58 + x_57 + x_56 + x_55 + x_54 + x_53 + x_52
 + x_51 + x_50 + x_49 + x_48 + x_47 + x_46 + x_45 + x_44 - ~r_91 = 0
 r_92: + x_80 + x_79 + x_78 + x_77 + x_76 + x_75 + x_74 + x_73 + x_72
 + x_71 + x_70 + x_69 + x_68 + x_67 + x_66 + x_65 + x_64 + x_63 + x_62
 + x_61 + x_60 + x_59 + x_58 + x_57 + x_56 + x_55 + x_54 + x_53 + x_52
 + x_51 + x_50 + x_49 + x_48 + x_47 - ~r_92 = 0
 r_93: + x_80 + x_79 + x_78 + x_77 + x_76 + x_75 + x_74 + x_73 + x_72
 + x_71 + x_70 + x_69 + x_68 + x_67 + x_66 + x_65 + x_64 + x_63 + x_62
 + x_61 + x_60 + x_59 + x_58 + x_57 + x_56 + x_55 + x_54 + x_53 + x_52
 + x_51 + x_50 + x_49 + x_48 - ~r_93 = 0
 r_94: + x_80 + x_79 + x_78 + x_77 + x_76 + x_75 + x_74 + x_73 + x_72
 + x_71 + x_70 + x_69 + x_68 + x_67 + x_66 + x_65 + x_64 + x_63 + x_62
 + x_61 + x_60 + x_59 + x_58 + x_57 + x_56 + x_55 + x_54 + x_53 + x_52
 + x_51 + x_50 - ~r_94 = 0
 r_95: + x_80 + x_79 + x_78 + x_77 + x_76 + x_75 + x_74 + x_73 + x_72
 + x_71 + x_70 + x_69 + x_68 + x_67 + x_66 + x_65 + x_64 + x_63 + x_62
 + x_61 + x_60 + x_59 + x_58 + x_57 + x_56 + x_55 + x_54 + x_53 - ~r_95
 = 0
 r_96: + x_78 + x_77 + x_76 + x_75 + x_74 + x_73 + x_72 + x_71 + x_70
 + x_69 + x_68 + x_67 + x_66 + x_65 + x_64 + x_63 + x_62 + x_61 + x_60
 + x_59 + x_58 + x_57 - ~r_96 = 0
 r_97: + x_78 + x_77 + x_76 + x_75 + x_74 + x_73 + x_72 + x_71 + x_70
 + x_69 + x_68 + x_67 + x_66 + x_65 + x_64 + x_63 + x_62 + x_61 + x_60
 + x_59 + x_58 - ~r_97 = 0
 r_98: + x_78 + x_77 + x_76 + x_75 + x_74 + x_73 + x_72 + x_71 + x_70
 + x_69 + x_68 + x_67 + x_66 + x_65 + x_64 + x_63 + x_62 + x_61 + x_60
 + x_59 - ~r_98 = 0
 r_99: + x_78 + x_77 + x_76 + x_75 + x_74 + x_73 + x_72 + x_71 + x_70
 + x_69 + x_68 + x_67 + x_66 + x_65 + x_64 + x_63 + x_62 + x_61 + x_60
 - ~r_99 = 0
 r_100: + x_80 + x_79 + x_78 + x_77 + x_76 + x_75 + x_74 + x_73 + x_72
 + x_71 + x_70 + x_69 + x_68 + x_67 + x_66 + x_65 + x_64 + x_63 + x_62
 + x_61 + x_60 + x_59 + x_58 + x_57 + x_56 + x_55 + x_54 + x_53 + x_52
 + x_51 + x_50 + x_49 + x_48 + x_47 + x_46 + x_45 + x_44 + x_43 + x_42
 + x_41 + x_40 + x_39 + x_38 + x_37 + x_36 + x_35 + x_34 + x_33 + x_32
 + x_31 + x_30 - ~r_100 = 0
 r_101: + x_78 + x_77 + x_76 + x_75 + x_74 + x_73 + x_72 + x_71 + x_70
 + x_69 + x_68 + x_67 + x_66 + x_65 + x_64 + x_63 + x_62 + x_61 - ~r_101
 = 0
 r_102: + x_78 + x_77 + x_76 + x_75 + x_74 + x_73 + x_72 + x_71 + x_70
 + x_69 + x_68 + x_67 + x_66 + x_65 + x_64 + x_63 + x_62 - ~r_102 = 0
 r_103: + x_78 + x_77 + x_76 + x_75 + x_74 + x_73 + x_72 + x_71 + x_70
 + x_69 + x_68 + x_67 + x_66 + x_65 + x_64 + x_63 - ~r_103 = 0
 r_104: + x_78 + x_77 + x_76 + x_75 + x_74 + x_73 + x_72 + x_71 + x_70
 + x_69 + x_68 + x_67 + x_66 + x_65 + x_64 - ~r_104 = 0
 r_105: + x_78 + x_77 + x_76 + x_75 + x_74 + x_73 + x_72 + x_71 + x_70
 + x_69 + x_68 + x_67 + x_66 + x_65 - ~r_105 = 0
 r_106: + x_78 + x_77 + x_76 + x_75 + x_74 + x_73 + x_72 + x_71 + x_70
 + x_69 + x_68 + x_67 + x_66 - ~r_106 = 0
 r_107: + x_78 + x_77 + x_76 + x_75 + x_74 + x_73 + x_72 + x_71 + x_70
 - ~r_107 = 0
 r_108: + x_78 + x_77 + x_76 + x_75 + x_74 + x_73 + x_72 - ~r_108 = 0
 r_109: + x_78 + x_77 + x_76 + x_75 + x_74 + x_73 - ~r_109 = 0
 r_110: + x_78 + x_77 + x_76 + x_75 + x_74 - ~r_110 = 0
 r_111: + x_80 + x_79 + x_78 + x_77 + x_76 + x_75 + x_74 + x_73 + x_72
 + x_71 + x_70 + x_69 + x_68 + x_67 + x_66 + x_65 + x_64 + x_63 + x_62
 + x_61 + x_60 + x_59 + x_58 + x_57 + x_56 + x_55 + x_54 + x_53 + x_52
 + x_51 + x_50 + x_49 + x_48 + x_47 + x_46 + x_45 + x_44 + x_43 + x_42
 + x_41 + x_40 + x_39 + x_38 + x_37 + x_36 + x_35 + x_34 + x_33 + x_32
 + x_31 - ~r_111 = 0
 r_112: + x_78 + x_77 + x_76 + x_75 - ~r_112 = 0
 r_113: + x_78 + x_77 + x_76 - ~r_113 = 0
 r_114: + x_80 + x_79 + x_78 + x_77 + x_76 + x_75 + x_74 + x_73 + x_72
 + x_71 + x_70 + x_69 + x_68 + x_67 + x_66 + x_65 + x_64 + x_63 + x_62
 + x_61 + x_60 + x_59 + x_58 + x_57 + x_56 + x_55 + x_54 + x_53 + x_52
 + x_51 + x_50 + x_49 + x_48 + x_47 + x_46 + x_45 + x_44 + x_43 + x_42
 + x_41 + x_40 + x_39 + x_38 + x_37 + x_36 + x_35 + x_34 + x_33 + x_32
 - ~r_114 = 0
 r_115: + x_80 + x_79 + x_78 + x_77 + x_76 + x_75 + x_74 + x_73 + x_72
 + x_71 + x_70 + x_69 + x_68 + x_67 + x_66 + x_65 + x_64 + x_63 + x_62
 + x_61 + x_60 + x_59 + x_58 + x_57 + x_56 + x_55 + x_54 + x_53 + x_52
 + x_51 + x_50 + x_49 + x_48 + x_47 + x_46 + x_45 + x_44 + x_43 + x_42
 + x_41 + x_40 + x_39 + x_38 + x_37 + x_36 + x_35 + x_34 - ~r_115 = 0
 r_116: + x_80 + x_79 + x_78 + x_77 + x_76 + x_75 + x_74 + x_73 + x_72
 + x_71 + x_70 + x_69 + x_68 + x_67 + x_66 + x_65 + x_64 + x_63 + x_62
 + x_61 + x_60 + x_59 + x_58 + x_57 + x_56 + x_55 + x_54 + x_53 + x_52
 + x_51 + x_50 + x_49 + x_48 + x_47 + x_46 + x_45 + x_44 + x_43 + x_42
 + x_41 + x_40 + x_39 + x_38 + x_37 + x_36 + x_35 - ~r_116 = 0
 r_117: + x_80 + x_79 + x_78 + x_77 + x_76 + x_75 + x_74 + x_73 + x_72
 + x_71 + x_70 + x_69 + x_68 + x_67 + x_66 + x_65 + x_64 + x_63 + x_62
 + x_61 + x_60 + x_59 + x_58 + x_57 + x_56 + x_55 + x_54 + x_53 + x_52
 + x_51 + x_50 + x_49 + x_48 + x_47 + x_46 + x_45 + x_44 + x_43 + x_42
 + x_41 + x_40 + x_39 + x_38 + x_37 + x_36 - ~r_117 = 0
 r_118: + x_80 + x_79 + x_78 + x_77 + x_76 + x_75 + x_74 + x_73 + x_72
 + x_71 + x_70 + x_69 + x_68 + x_67 + x_66 + x_65 + x_64 + x_63 + x_62
 + x_61 + x_60 + x_59 + x_58 + x_57 + x_56 + x_55 + x_54 + x_53 + x_52
 + x_51 + x_50 + x_49 + x_48 + x_47 + x_46 + x_45 + x_44 + x_43 + x_42
 + x_41 + x_40 + x_39 + x_38 - ~r_118 = 0
 r_119: + x_80 + x_79 + x_78 + x_77 + x_76 + x_75 + x_74 + x_73 + x_72
 + x_71 + x_70 + x_69 + x_68 + x_67 + x_66 + x_65 + x_64 + x_63 + x_62
 + x_61 + x_60 + x_59 + x_58 + x_57 + x_56 + x_55 + x_54 + x_53 + x_52
 + x_51 + x_50 + x_49 + x_48 + x_47 + x_46 + x_45 + x_44 + x_43 + x_42
 + x_41 + x_40 - ~r_119 = 0
 r_120: + x_5 = 0
 r_121: + x_78 + x_77 - ~r_121 = 0
 r_122: + x_80 + x_79 - ~r_122 = 0
 r_123: + x_78 >= 0
 r_124: + x_12 + x_11 - x_30 = 0
 r_125: + x_10 + x_9 + x_8 + x_7 - x_12 - x_11 = 0
 r_126: + x_18 + x_17 - x_25 = 0
 r_127: + x_16 + x_15 + x_14 + x_13 - x_18 - x_17 = 0
 r_128: + x_24 + x_23 - x_26 = 0
 r_129: + x_22 + x_21 + x_20 + x_19 - x_24 - x_23 = 0
 r_130: + x_28 + x_27 - x_35 = 0
 r_131: + x_26 + x_25 - x_28 - x_27 = 0
 r_132: - x_3 - x_2 - x_1 + x_83 + x_82 + x_20 + x_14 - ~r_132
 = -36.2903225806452
 r_133: - x_6 - x_5 - x_4 + x_81 + x_10 - ~r_133 = -36.2903225806452

Bounds
 0 <= ~r_5 <= 14.2857142857143
 0 <= ~r_6 <= 14.2857142857143
 0 <= ~r_7 <= 14.2857142857143
 0 <= ~r_8 <= 14.2857142857143
 0 <= ~r_9 <= 14.2857142857143
 0 <= ~r_10 <= 14.2857142857143
 0 <= ~r_11 <= 14.2857142857143
 0 <= ~r_12 <= 14.2857142857143
 0 <= ~r_13 <= 14.2857142857143
 0 <= ~r_14 <= 14.2857142857143
 0 <= ~r_15 <= 14.2857142857143
 0 <= ~r_16 <= 14.2857142857143
 0 <= ~r_17 <= 14.2857142857143
 0 <= ~r_18 <= 14.2857142857143
 0 <= ~r_22 <= 28.5714285714286
 0 <= ~r_27 <= 42.8571428571429
 0 <= ~r_32 <= 14.2857142857143
 0 <= ~r_35 <= 14.2857142857143
 0 <= ~r_36 <= 14.2857142857143
 0 <= ~r_37 <= 14.2857142857143
 0 <= ~r_38 <= 14.2857142857143
 0 <= ~r_39 <= 14.2857142857143
 0 <= ~r_40 <= 14.2857142857143
 0 <= ~r_41 <= 14.2857142857143
 0 <= ~r_42 <= 14.2857142857143
 0 <= ~r_46 <= 57.1428571428571
 0 <= ~r_48 <= 14.2857142857143
 0 <= ~r_49 <= 14.2857142857143
 0 <= ~r_50 <= 14.2857142857143
 0 <= ~r_51 <= 14.2857142857143
 0 <= ~r_52 <= 14.2857142857143
 0 <= ~r_53 <= 14.2857142857143
 0 <= ~r_54 <= 14.2857142857143
 0 <= ~r_56 <= 14.2857142857143
 0 <= ~r_57 <= 14.2857142857143
 0 <= ~r_58 <= 14.2857142857143
 0 <= ~r_59 <= 14.2857142857143
 0 <= ~r_62 <= 14.2857142857143
 0 <= ~r_63 <= 14.2857142857143
 0 <= ~r_66 <= 14.2857142857143
 0 <= ~r_67 <= 14.2857142857143
 0 <= ~r_68 <= 14.2857142857143
 0 <= ~r_69 <= 14.2857142857143
 0 <= ~r_70 <= 14.2857142857143
 0 <= ~r_71 <= 14.2857142857143
 0 <= ~r_72 <= 14.2857142857143
 0 <= ~r_73 <= 14.2857142857143
 0 <= ~r_74 <= 14.2857142857143
 0 <= ~r_75 <= 14.2857142857143
 0 <= ~r_76 <= 14.2857142857143
 0 <= ~r_77 <= 14.2857142857143
 0 <= ~r_78 <= 14.2857142857143
 0 <= ~r_79 <= 14.2857142857143
 0 <= ~r_80 <= 14.2857142857143
 0 <= ~r_81 <= 14.2857142857143
 0 <= ~r_82 <= 14.2857142857143
 0 <= ~r_83 <= 14.2857142857143
 0 <= ~r_84 <= 14.2857142857143
 0 <= ~r_85 <= 14.2857142857143
 0 <= ~r_86 <= 14.2857142857143
 0 <= ~r_87 <= 1
 0 <= ~r_88 <= 1
 0 <= ~r_89 <= 13200000
 0 <= ~r_90 <= 13200000
 0 <= ~r_91 <= 13200000
 0 <= ~r_92 <= 13200000
 0 <= ~r_93 <= 13200000
 0 <= ~r_94 <= 13200000
 0 <= ~r_95 <= 13200000
 0 <= ~r_96 <= 13200000
 0 <= ~r_97 <= 13200000
 0 <= ~r_98 <= 13200000
 0 <= ~r_99 <= 13200000
 0 <= ~r_100 <= 13200000
 0 <= ~r_101 <= 13200000
 0 <= ~r_102 <= 13200000
 0 <= ~r_103 <= 13200000
 0 <= ~r_104 <= 13200000
 0 <= ~r_105 <= 13200000
 0 <= ~r_106 <= 13200000
 0 <= ~r_107 <= 13200000
 0 <= ~r_108 <= 13200000
 0 <= ~r_109 <= 13200000
 0 <= ~r_110 <= 13200000
 0 <= ~r_111 <= 13200000
 0 <= ~r_112 <= 13200000
 0 <= ~r_113 <= 13200000
 0 <= ~r_114 <= 13200000
 0 <= ~r_115 <= 13200000
 0 <= ~r_116 <= 13200000
 0 <= ~r_117 <= 13200000
 0 <= ~r_118 <= 13200000
 0 <= ~r_119 <= 13200000
 0 <= ~r_121 <= 13200000
 0 <= ~r_122 <= 13200000
 0 <= ~r_132 <= 36.2903225806452
 0 <= ~r_133 <= 36.2903225806452

End
